40
2 0 6
2 1 3
3 2 1
4 0 9
5 0 8
6 1 1
6 3 2
6 5 6
7 6 3
8 1 8
8 2 9
8 4 10
9 1 9
9 2 9
9 3 8
9 4 8
9 8 4
10 0 8
10 2 10
10 3 8
10 4 7
10 5 9
10 6 11
10 8 9
10 9 10
11 0 3
11 1 8
11 2 8
11 3 6
11 5 9
11 6 7
11 8 7
11 9 6
11 10 8
12 0 8
12 4 5
12 7 5
12 8 1
13 1 3
13 2 8
13 7 3
13 10 7
13 12 11
14 0 5
14 1 8
14 2 1
14 5 7
14 8 8
14 10 7
14 12 4
15 1 4
15 3 10
15 6 7
15 7 4
15 9 7
15 10 5
15 14 7
16 0 10
16 2 6
16 5 11
16 6 4
16 10 10
16 13 2
16 14 2
17 1 10
17 5 7
17 12 3
17 13 3
17 16 1
18 0 1
18 1 5
18 2 9
18 3 6
18 5 5
18 6 2
18 7 6
18 9 2
18 10 3
18 13 9
18 14 10
18 15 9
19 0 1
19 1 6
19 2 4
19 4 6
19 9 9
19 14 7
19 15 11
19 17 3
19 18 5
20 0 10
20 3 7
20 4 3
20 5 2
20 8 4
20 10 3
20 12 5
20 13 1
20 14 2
20 16 6
20 18 5
21 0 2
21 2 1
21 7 8
21 8 9
21 9 1
21 12 6
21 15 5
21 17 7
21 18 4
21 19 10
22 3 11
22 5 9
22 7 1
22 8 8
22 9 4
22 10 5
22 11 11
22 12 7
22 13 1
22 14 10
22 15 5
22 19 9
23 0 9
23 1 4
23 2 9
23 4 9
23 5 4
23 6 7
23 7 6
23 8 5
23 11 4
23 12 11
23 13 4
23 14 8
24 0 2
24 1 1
24 4 10
24 7 5
24 8 1
24 9 7
24 11 11
24 12 5
24 14 3
24 17 4
24 18 5
24 19 5
24 20 8
24 23 9
25 1 1
25 7 9
25 9 6
25 10 10
25 13 8
25 15 3
25 17 10
25 19 8
25 24 9
26 1 5
26 4 1
26 5 8
26 6 11
26 8 2
26 10 10
26 11 2
26 13 7
26 14 5
26 15 3
26 20 9
26 21 10
26 23 4
26 25 5
27 0 1
27 1 4
27 2 3
27 3 5
27 5 10
27 7 4
27 8 4
27 9 8
27 10 2
27 12 7
27 13 1
27 14 4
27 15 5
27 17 2
27 18 9
27 19 5
27 20 6
27 25 8
27 26 8
28 0 3
28 5 7
28 9 3
28 10 11
28 11 7
28 12 2
28 16 4
28 18 11
28 19 3
28 20 8
28 21 6
28 23 10
28 24 6
28 26 10
29 0 11
29 1 9
29 3 3
29 5 7
29 10 10
29 12 6
29 13 3
29 15 8
29 16 10
29 17 2
29 20 11
29 24 5
29 26 6
30 0 4
30 2 11
30 4 5
30 8 10
30 11 9
30 15 11
30 16 11
30 19 5
30 20 5
30 21 5
30 24 7
30 26 7
30 27 2
31 0 10
31 1 9
31 2 9
31 4 1
31 5 9
31 6 7
31 10 8
31 15 4
31 16 1
31 24 3
31 25 7
32 0 1
32 1 1
32 3 2
32 4 7
32 8 9
32 9 9
32 10 2
32 11 8
32 12 11
32 13 5
32 14 11
32 17 4
32 21 10
32 25 10
32 27 2
32 28 6
32 30 4
33 0 10
33 3 3
33 5 4
33 6 4
33 8 9
33 11 6
33 12 2
33 13 10
33 14 11
33 18 5
33 21 9
33 22 1
33 23 5
33 24 8
33 26 11
33 27 11
33 31 4
34 1 7
34 3 10
34 4 2
34 6 9
34 7 7
34 8 10
34 10 3
34 11 9
34 13 6
34 17 3
34 19 5
34 20 3
34 22 8
34 23 5
34 24 7
34 27 1
34 29 6
34 30 10
34 31 10
34 33 10
35 1 8
35 2 3
35 3 4
35 6 11
35 7 10
35 8 4
35 9 11
35 14 1
35 18 8
35 23 7
35 24 2
35 25 1
35 26 9
35 29 8
35 30 3
35 31 6
35 32 9
36 0 11
36 2 1
36 3 11
36 5 7
36 7 8
36 12 8
36 13 5
36 14 9
36 20 8
36 21 8
36 23 7
36 25 9
36 27 7
36 28 5
36 31 7
36 32 1
36 33 4
36 34 9
36 35 10
37 1 9
37 3 9
37 4 11
37 5 10
37 6 3
37 8 8
37 9 9
37 10 6
37 12 4
37 15 11
37 16 1
37 17 3
37 18 4
37 20 7
37 23 9
37 26 7
37 28 5
37 29 5
37 30 8
37 32 7
37 36 3
38 0 1
38 2 2
38 3 8
38 4 8
38 5 8
38 6 7
38 7 6
38 9 11
38 10 3
38 12 9
38 14 8
38 16 2
38 17 5
38 23 11
38 25 7
38 28 7
38 29 3
38 30 3
38 34 5
38 35 9
38 36 8
39 0 7
39 2 11
39 3 4
39 5 2
39 6 6
39 10 7
39 11 9
39 12 1
39 13 6
39 14 6
39 15 7
39 20 4
39 22 2
39 23 9
39 24 2
39 25 4
39 26 8
39 29 11
39 31 7
39 32 3
39 33 6
39 35 1
39 37 11
